NAME : portcgen-17-32
COMMENT : portcgen N=17, seed=32
TYPE : TSP
DIMENSION : 17
EDGE_WEIGHT_TYPE : EUC_2D
NODE_COORD_SECTION
1 -147770 -456542
2 -16489 -39847
3 -103840 296990
4 244102 -155296
5 -79221 -208693
6 -24772 -207067
7 -76702 183128
8 -7716 77486
9 36849 237714
10 -402062 -62455
11 -320763 56166
12 572709 -241084
13 -335489 36709
14 97675 -138958
15 -120326 -203918
16 -263362 -185881
17 -131834 -143616
